<?xml version = "1.0" standalone="yes"?>
<!-- This file has been generated by DOcplex version 2.23.222  -->
<CPLEXSolution version="1.0">
 <header
   problemName="CVRP"
   objectiveValue="14978.4"
  />
 <variables>
  <variable name="x_0_2" index="1" value="1.00000"/>
  <variable name="x_0_4" index="3" value="1.00000"/>
  <variable name="x_0_5" index="4" value="1.00000"/>
  <variable name="x_0_7" index="6" value="1.00000"/>
  <variable name="x_0_12" index="11" value="1.00000"/>
  <variable name="x_0_13" index="12" value="1.00000"/>
  <variable name="x_0_14" index="13" value="1.00000"/>
  <variable name="x_0_15" index="14" value="1.00000"/>
  <variable name="x_0_16" index="15" value="1.00000"/>
  <variable name="x_0_19" index="18" value="1.00000"/>
  <variable name="x_0_21" index="20" value="1.00000"/>
  <variable name="x_1_8" index="28" value="1.00000"/>
  <variable name="x_2_0" index="42" value="1.00000"/>
  <variable name="x_3_0" index="63" value="1.00000"/>
  <variable name="x_4_0" index="84" value="1.00000"/>
  <variable name="x_5_11" index="115" value="1.00000"/>
  <variable name="x_6_0" index="126" value="1.00000"/>
  <variable name="x_7_10" index="156" value="1.00000"/>
  <variable name="x_8_20" index="187" value="1.00000"/>
  <variable name="x_9_0" index="189" value="1.00000"/>
  <variable name="x_10_1" index="211" value="1.00000"/>
  <variable name="x_11_18" index="248" value="1.00000"/>
  <variable name="x_12_6" index="258" value="1.00000"/>
  <variable name="x_13_0" index="273" value="1.00000"/>
  <variable name="x_14_17" index="310" value="1.00000"/>
  <variable name="x_15_0" index="315" value="1.00000"/>
  <variable name="x_16_0" index="336" value="1.00000"/>
  <variable name="x_17_0" index="357" value="1.00000"/>
  <variable name="x_18_3" index="381" value="1.00000"/>
  <variable name="x_19_0" index="399" value="1.00000"/>
  <variable name="x_20_0" index="420" value="1.00000"/>
  <variable name="x_21_9" index="450" value="1.00000"/>
  <variable name="u_1" index="462" value="39.00000"/>
  <variable name="u_2" index="463" value="57.00000"/>
  <variable name="u_3" index="464" value="65.00000"/>
  <variable name="u_4" index="465" value="45.00000"/>
  <variable name="u_5" index="466" value="50.00000"/>
  <variable name="u_6" index="467" value="63.00000"/>
  <variable name="u_7" index="468" value="15.00000"/>
  <variable name="u_8" index="469" value="60.00000"/>
  <variable name="u_9" index="470" value="65.00000"/>
  <variable name="u_10" index="471" value="20.00000"/>
  <variable name="u_11" index="472" value="59.00000"/>
  <variable name="u_12" index="473" value="29.00000"/>
  <variable name="u_13" index="474" value="65.00000"/>
  <variable name="u_14" index="475" value="11.00000"/>
  <variable name="u_15" index="476" value="41.00000"/>
  <variable name="u_16" index="477" value="34.00000"/>
  <variable name="u_17" index="478" value="58.00000"/>
  <variable name="u_18" index="479" value="64.00000"/>
  <variable name="u_19" index="480" value="65.00000"/>
  <variable name="u_20" index="481" value="63.00000"/>
  <variable name="u_21" index="482" value="56.00000"/>
 </variables>
</CPLEXSolution>
